NAME : simpleTest
COMMENT : Drilling problem (Reinelt)
TYPE : TSP
DIMENSION : 5
EDGE_WEIGHT_TYPE : EUC_2D
NODE_COORD_SECTION
1 0.00000e+03 0.00000e+00
2 1.00000e+03 0.00000e+00
3 2.00000e+03 0.00000e+00
4 4.00000e+03 0.00000e+00
5 8.00000e+03 0.00000e+00
6 16.00000e+03 0.00000e+00
7 32.00000e+03 0.00000e+00
8 64.00000e+03 0.00000e+00
9 128.00000e+03 0.00000e+00
10 256.00000e+03 0.00000e+00
EOF
